(declare-const |Id_MCDC_118'| Int)
(declare-const term_to_project_onto7_integralized Int)
(declare-const term_to_project_onto1_integralized Int)
(declare-const return@pos Int)
(declare-const |Id_MCDC_119'| Int)
(declare-const |Id_MCDC_120'| Int)
(declare-const term_to_project_onto8_integralized Int)
(declare-const term_to_project_onto4_integralized Int)
(declare-const param0@pos Int)
(declare-const term_to_project_onto5_integralized Int)
(declare-const term_to_project_onto2_integralized Int)
(declare-const term_to_project_onto0_integralized Int)
(declare-const return Int)
(declare-const term_to_project_onto3_integralized Int)
(declare-const term_to_project_onto_integralized Int)
(declare-const Id_MCDC_120 Int)
(declare-const param0@width Int)
(declare-const term_to_project_onto6_integralized Int)
(declare-const param0 Int)
(declare-const return@width Int)
(assert (exists
         ((uninterp?1?1 Int) (uninterp?2?2 Int) (uninterp?3?3 Int)
            (uninterp?4?4 Int) (uninterp?5?5 Int) (|param0@width'?6?6| Int)
            (|return@width'?7?7| Int) (|param0@pos'?8?8| Int)
            (|return@pos'?9?9| Int) (|param0'?10?10| Int)
            (|return'?11?11| Int) (|Id_MCDC_117'?12?12| Int)
            (type_err?13?13 Int) (type_err?14?14 Int) (havoc?15?15 Int)
            (type_err?16?16 Int) (type_err?17?17 Int) (Id_MCDC_117?18?18 Int)
            (Id_MCDC_118?19?19 Int) (Id_MCDC_119?20?20 Int))
         (and (or (<= (+ Id_MCDC_119?20?20 1) 0)
                    (<= (+ (- Id_MCDC_119?20?20) 1) 0))
                (or (<= (+ (ite (or (<= (+ Id_MCDC_118?19?19 1) 0)
                                      (<= (+ (- Id_MCDC_118?19?19) 1) 0))
                                1 0) 1) 0)
                      (<= (+ (- (ite (or (<= (+ Id_MCDC_118?19?19 1) 0)
                                           (<= (+ (- Id_MCDC_118?19?19) 1) 0))
                                     1 0)) 1) 0))
                (= (+ (- type_err?16?16) |param0@width'?6?6|) 0)
                (= (+ (- type_err?13?13) |return@width'?7?7|) 0)
                (= (+ (- type_err?17?17) |param0@pos'?8?8|) 0)
                (= (+ (- type_err?14?14) |return@pos'?9?9|) 0)
                (= (+ |param0'?10?10|
                        (- (ite (or (<= (+ Id_MCDC_118?19?19 1) 0)
                                      (<= (+ (- Id_MCDC_118?19?19) 1) 0))
                                1 0))) 0)
                (= (+ (- havoc?15?15) |return'?11?11|) 0)
                (= (+ (ite (and (<= (- Id_MCDC_117?18?18) 0)
                                  (<= (- Id_MCDC_117?18?18) 0))
                           uninterp?5?5
                           (ite (and (<= (- Id_MCDC_118?19?19) 0)
                                       (<= (- Id_MCDC_118?19?19) 0))
                                (+ uninterp?5?5 (- Id_MCDC_118?19?19))
                                (+ uninterp?5?5 Id_MCDC_118?19?19)))
                        (- Id_MCDC_117?18?18) uninterp?4?4) 0)
                (or (< (- Id_MCDC_118?19?19) 0) (< Id_MCDC_118?19?19 0))
                (= (+ uninterp?3?3 (- uninterp?2?2)) 0)
                (or (< (- Id_MCDC_118?19?19) 0) (< Id_MCDC_118?19?19 0))
                (= (+ uninterp?1?1 (- uninterp?2?2)) 0)
                (or (< (- Id_MCDC_118?19?19) 0) (< Id_MCDC_118?19?19 0))
                (= (+ |Id_MCDC_117'?12?12| (- Id_MCDC_118?19?19)) 0)
                (= (- (+ (- uninterp?3?3) uninterp?2?2)) 0)
                (= (- (+ (- uninterp?3?3) uninterp?1?1)) 0)
                (= (+ term_to_project_onto8_integralized
                        (- (+ |Id_MCDC_117'?12?12| (- Id_MCDC_117?18?18)))) 0)
                (= (+ term_to_project_onto7_integralized
                        (- (+ |Id_MCDC_118'| (- Id_MCDC_118?19?19)))) 0)
                (= (+ term_to_project_onto6_integralized
                        (- (+ |Id_MCDC_119'| (- Id_MCDC_119?20?20)))) 0)
                (= (+ term_to_project_onto5_integralized
                        (- (+ |Id_MCDC_120'| (- Id_MCDC_120)))) 0)
                (= (+ term_to_project_onto4_integralized
                        (- (+ |return'?11?11| (- return)))) 0)
                (= (+ term_to_project_onto3_integralized
                        (- (+ |param0'?10?10| (- param0)))) 0)
                (= (+ term_to_project_onto2_integralized
                        (- (+ |return@pos'?9?9| (- return@pos)))) 0)
                (= (+ term_to_project_onto1_integralized
                        (- (+ |param0@pos'?8?8| (- param0@pos)))) 0)
                (= (+ term_to_project_onto0_integralized
                        (- (+ |return@width'?7?7| (- return@width)))) 0)
                (= (+ term_to_project_onto_integralized
                        (- (+ |param0@width'?6?6| (- param0@width)))) 0))))
(check-sat)